data;


param d:= 100;
param r:=5;
param p:=0.800000;
param M:=1000;
param U:=
         1         1       -5.632474e-01
         2         1        1.042186e+00
         3         1       -2.443662e-01
         4         1        6.514450e-01
         5         1        1.349574e-01
         6         1       -1.772531e+00
         7         1       -4.354193e-01
         8         1        3.186548e-02
         9         1       -1.573032e+00
        10         1        1.031861e+00
        11         1       -8.403841e-01
        12         1        2.553786e-01
        13         1        8.659072e-01
        14         1        4.887831e-01
        15         1       -1.019181e+00
        16         1        8.895612e-01
        17         1       -3.812834e-01
        18         1       -1.099693e+00
        19         1        1.608757e-01
        20         1        5.231952e-02
        21         1       -1.156371e-01
        22         1       -1.557489e+00
        23         1       -2.341718e+00
        24         1       -1.513072e+00
        25         1       -9.314869e-01
        26         1        7.394943e-01
        27         1       -8.338669e-01
        28         1       -5.676372e-01
        29         1        1.319401e+00
        30         1       -1.009772e+00
        31         1       -1.516568e-01
        32         1        2.176726e-01
        33         1        1.804811e-01
        34         1       -9.420660e-01
        35         1        1.519056e-01
        36         1       -2.203571e-01
        37         1       -8.693714e-01
        38         1        2.605663e-01
        39         1       -8.116984e-02
        40         1       -1.669767e+00
        41         1       -1.296828e+00
        42         1        1.352758e-01
        43         1       -2.642734e-01
        44         1        3.994115e-01
        45         1       -4.620660e-01
        46         1        1.801520e-01
        47         1       -2.047556e-01
        48         1       -6.249340e-01
        49         1       -2.858060e-01
        50         1       -4.291744e-01
        51         1        8.957211e-01
        52         1        2.924098e-01
        53         1       -1.285635e+00
        54         1       -6.328705e-01
        55         1        7.876254e-01
        56         1       -1.170140e-01
        57         1        6.798603e-01
        58         1       -3.911551e-01
        59         1        3.345930e-01
        60         1        2.167737e-01
        61         1        1.118692e-01
        62         1       -3.091042e-01
        63         1       -4.926930e-01
        64         1       -9.133983e-01
        65         1       -3.862441e-01
        66         1        1.507817e+00
        67         1       -2.771234e-01
        68         1       -1.038931e-02
        69         1        2.157472e-01
        70         1        6.807108e-01
        71         1       -7.182992e-01
        72         1        1.097557e-02
        73         1       -9.412034e-01
        74         1       -1.187854e+00
        75         1        3.979355e-01
        76         1        1.119654e+00
        77         1       -5.234500e-01
        78         1       -2.033443e+00
        79         1       -9.116185e-01
        80         1        9.155764e-01
        81         1        8.489516e-01
        82         1        1.507673e+00
        83         1        9.789013e-01
        84         1        1.773666e-01
        85         1        1.689031e-02
        86         1        4.036828e-01
        87         1       -1.817126e+00
        88         1        9.849205e-01
        89         1        1.115037e-01
        90         1        1.256265e+00
        91         1        9.446016e-01
        92         1        1.787306e+00
        93         1       -1.073125e+00
        94         1        3.331795e-01
        95         1        3.696706e-01
        96         1       -8.344303e-01
        97         1       -4.384518e-01
        98         1       -1.329032e+00
        99         1        6.091671e-01
       100         1        1.671123e+00
         1         2       -1.384158e+00
         2         2        5.849650e-01
         3         2       -7.979339e-02
         4         2        8.539961e-02
         5         2        1.168234e+00
         6         2       -1.305169e-01
         7         2        2.633359e-01
         8         2       -1.372328e+00
         9         2       -9.048999e-03
        10         2       -1.040214e+00
        11         2        8.370340e-01
        12         2       -6.433034e-01
        13         2       -3.237192e-01
        14         2        1.433903e+00
        15         2       -1.082720e-01
        16         2       -1.158625e+00
        17         2        2.195844e+00
        18         2       -1.174712e+00
        19         2       -4.818041e-01
        20         2        2.184093e-01
        21         2        5.514557e-01
        22         2        2.237187e+00
        23         2       -8.244870e-02
        24         2       -8.942210e-01
        25         2        7.069227e-01
        26         2       -1.974590e+00
        27         2       -7.922742e-01
        28         2        9.604354e-01
        29         2       -4.367435e-01
        30         2        1.937001e-01
        31         2        5.103384e-01
        32         2       -1.570493e+00
        33         2       -8.334871e-01
        34         2       -5.295558e-01
        35         2       -7.330332e-01
        36         2        6.006128e-02
        37         2       -5.047351e-01
        38         2       -2.644527e-01
        39         2       -3.593696e-01
        40         2       -1.154278e+00
        41         2       -1.298225e+00
        42         2       -4.812565e-01
        43         2        3.017073e-01
        44         2       -1.817766e+00
        45         2        8.297616e-01
        46         2       -1.801698e+00
        47         2        4.951995e-01
        48         2        1.562786e+00
        49         2       -5.077694e-01
        50         2        2.774110e+00
        51         2        1.205486e+00
        52         2       -3.324769e-01
        53         2       -1.865799e+00
        54         2       -1.420766e+00
        55         2        2.050067e-01
        56         2        1.409253e+00
        57         2        6.615400e-01
        58         2       -6.829005e-01
        59         2       -8.498142e-01
        60         2       -3.545584e-01
        61         2       -9.525897e-01
        62         2        1.762431e+00
        63         2        1.435699e-02
        64         2       -1.092024e+00
        65         2       -5.046990e-01
        66         2       -8.020660e-01
        67         2        6.342110e-01
        68         2       -7.661753e-01
        69         2        1.904116e+00
        70         2        7.258364e-01
        71         2       -4.651643e-01
        72         2       -1.512402e+00
        73         2        4.900665e-01
        74         2       -3.527800e-01
        75         2       -1.508472e-01
        76         2       -5.029281e-03
        77         2       -1.092220e+00
        78         2        1.282886e+00
        79         2        4.767614e-01
        80         2       -2.856571e-01
        81         2        1.831145e+00
        82         2        4.918302e-01
        83         2        2.461091e-01
        84         2        1.131081e+00
        85         2        5.203894e-01
        86         2       -3.099997e-01
        87         2       -1.531519e+00
        88         2       -2.188392e+00
        89         2        9.856407e-01
        90         2       -6.269784e-01
        91         2       -1.552121e+00
        92         2       -8.439998e-01
        93         2        3.695586e-01
        94         2       -5.033356e-01
        95         2        6.862419e-02
        96         2        1.150152e+00
        97         2       -1.223268e-01
        98         2        1.361887e-01
        99         2        8.453233e-01
       100         2        1.283528e+00
         1         3       -7.774909e-01
         2         3       -8.215694e-01
         3         3        6.077078e-01
         4         3        6.909067e-01
         5         3       -6.456288e-01
         6         3        1.910159e-01
         7         3       -2.637043e-01
         8         3        1.639592e+00
         9         3       -9.270110e-01
        10         3       -1.319233e+00
        11         3        7.948931e-01
        12         3       -1.432094e+00
        13         3        1.008644e+00
        14         3        1.669253e-01
        15         3        4.540095e-01
        16         3       -1.273510e+00
        17         3       -8.332170e-01
        18         3        2.667669e-01
        19         3        1.379653e+00
        20         3       -2.206300e-02
        21         3        1.563395e+00
        22         3       -2.749884e+00
        23         3       -5.872575e-01
        24         3        1.055243e-01
        25         3        8.909168e-01
        26         3       -9.315072e-01
        27         3       -2.745667e-01
        28         3        4.848963e-01
        29         3       -1.282652e+00
        30         3       -4.606267e-01
        31         3       -1.265911e+00
        32         3       -1.749150e+00
        33         3        7.365994e-01
        34         3       -9.192637e-01
        35         3       -2.824045e-01
        36         3        1.436579e+00
        37         3       -6.298316e-01
        38         3       -9.688036e-01
        39         3        1.092837e-01
        40         3        4.075299e-01
        41         3        3.649019e-01
        42         3       -9.735752e-01
        43         3        1.314627e+00
        44         3       -7.656036e-01
        45         3        1.898807e+00
        46         3       -3.979819e-01
        47         3       -5.603736e-01
        48         3       -5.982717e-02
        49         3        4.539136e-01
        50         3       -7.388795e-01
        51         3       -9.354119e-01
        52         3       -8.719569e-04
        53         3        6.038906e-01
        54         3       -6.262313e-01
        55         3        2.222273e+00
        56         3        8.437347e-01
        57         3       -9.775638e-01
        58         3       -7.689770e-01
        59         3        1.928914e-02
        60         3       -2.495256e-01
        61         3        7.846680e-01
        62         3        2.016163e-01
        63         3       -1.120828e+00
        64         3       -9.939262e-01
        65         3        1.768476e+00
        66         3        1.143159e+00
        67         3       -7.713812e-01
        68         3       -1.006281e+00
        69         3       -1.386861e-01
        70         3       -4.684712e-01
        71         3        1.366497e+00
        72         3        9.888426e-02
        73         3        1.010076e+00
        74         3       -5.910466e-01
        75         3        2.633515e-01
        76         3       -1.032112e+00
        77         3       -1.788373e-01
        78         3        1.083533e+00
        79         3        1.117548e-01
        80         3       -6.698288e-01
        81         3        6.965669e-01
        82         3        5.626883e-01
        83         3       -9.028665e-01
        84         3       -3.609462e-01
        85         3       -6.217637e-01
        86         3        3.267579e-01
        87         3        2.323994e+00
        88         3       -1.792476e+00
        89         3       -2.211599e-01
        90         3       -1.239080e-01
        91         3       -1.505238e+00
        92         3       -6.391074e-01
        93         3       -7.499352e-01
        94         3        2.398660e-01
        95         3        9.390119e-01
        96         3        6.788791e-01
        97         3       -1.943519e+00
        98         3        2.069171e+00
        99         3       -2.163618e+00
       100         3        3.289606e-01
         1         4       -1.158845e+00
         2         4        1.910849e+00
         3         4       -9.212836e-02
         4         4        2.103331e+00
         5         4        1.259262e+00
         6         4       -1.421464e-01
         7         4       -9.858816e-01
         8         4        1.799377e-01
         9         4       -2.604437e-01
        10         4       -1.082294e+00
        11         4       -3.543777e-01
        12         4       -1.741688e+00
        13         4        1.908590e-01
        14         4        3.952503e-01
        15         4       -2.872315e-02
        16         4       -1.408397e+00
        17         4       -4.242566e-02
        18         4       -3.162471e-02
        19         4        2.202915e-01
        20         4       -1.997811e+00
        21         4       -1.926894e+00
        22         4       -8.531527e-02
        23         4        3.899808e-01
        24         4        6.369266e-01
        25         4       -2.164543e-01
        26         4        2.851816e-01
        27         4       -9.616943e-01
        28         4       -1.802789e+00
        29         4        4.019470e-01
        30         4       -7.624108e-01
        31         4       -9.192322e-01
        32         4       -4.490859e-01
        33         4       -1.805335e-01
        34         4       -8.059343e-01
        35         4       -4.391210e-01
        36         4       -1.804229e+00
        37         4       -3.172427e-02
        38         4       -6.204181e-01
        39         4       -6.469007e-01
        40         4        1.866166e+00
        41         4        1.245532e+00
        42         4        1.308954e-01
        43         4        8.311595e-01
        44         4       -2.242152e+00
        45         4        1.928739e-01
        46         4        1.032646e+00
        47         4       -3.493519e-02
        48         4       -7.658125e-01
        49         4       -3.982239e-01
        50         4       -9.425555e-02
        51         4        5.833094e-01
        52         4        3.343527e-01
        53         4       -1.297778e+00
        54         4        1.061634e+00
        55         4       -3.321569e-01
        56         4       -1.396258e+00
        57         4       -2.842740e-01
        58         4        7.857372e-01
        59         4        1.783919e-01
        60         4        1.378199e+00
        61         4       -9.063540e-01
        62         4        6.031162e-01
        63         4        4.154459e-01
        64         4       -8.139903e-01
        65         4        2.838077e-01
        66         4       -7.632219e-02
        67         4       -1.670883e-01
        68         4       -9.609542e-01
        69         4        1.456833e+00
        70         4       -6.173777e-01
        71         4       -3.490378e-01
        72         4        5.336455e-01
        73         4       -9.542164e-01
        74         4        6.412621e-01
        75         4        4.372585e-01
        76         4       -3.909040e-01
        77         4       -1.117161e+00
        78         4        5.903655e-01
        79         4       -3.409969e-01
        80         4       -9.590420e-01
        81         4        2.880792e-01
        82         4       -4.621165e-01
        83         4        6.380557e-02
        84         4        4.032694e-01
        85         4        4.397755e-01
        86         4       -2.706898e-01
        87         4       -2.287453e-01
        88         4        1.265611e+00
        89         4       -1.268725e+00
        90         4       -3.563239e-01
        91         4        9.248347e-01
        92         4       -6.501939e-01
        93         4       -7.556335e-01
        94         4        7.987538e-01
        95         4        2.398383e+00
        96         4       -7.370717e-01
        97         4       -1.265003e+00
        98         4       -9.858634e-01
        99         4       -1.637644e+00
       100         4       -1.147003e+00
         1         5        3.664801e-01
         2         5        3.090787e-01
         3         5        1.458354e+00
         4         5       -1.328973e+00
         5         5       -8.163186e-01
         6         5       -2.254161e-01
         7         5       -1.877303e+00
         8         5       -4.101993e-01
         9         5       -1.493325e+00
        10         5        1.227485e+00
        11         5        1.430250e+00
        12         5        2.089977e-01
        13         5       -1.981272e+00
        14         5       -4.847246e-01
        15         5        1.232335e-01
        16         5        5.811685e-01
        17         5        1.215281e+00
        18         5       -8.424135e-01
        19         5       -7.860626e-01
        20         5        5.485856e-01
        21         5       -5.761772e-01
        22         5       -1.150767e+00
        23         5       -8.461217e-03
        24         5       -1.001635e+00
        25         5       -8.773769e-01
        26         5       -2.198248e-01
        27         5       -3.769745e-01
        28         5        5.783656e-01
        29         5        5.969690e-01
        30         5       -1.362287e-01
        31         5        1.885390e-01
        32         5       -9.922058e-01
        33         5       -2.069519e-01
        34         5       -7.287091e-01
        35         5       -2.015696e-01
        36         5       -2.264762e-01
        37         5       -5.429345e-01
        38         5       -7.433272e-01
        39         5        8.917879e-02
        40         5        6.884011e-02
        41         5       -7.108279e-01
        42         5        1.783028e-01
        43         5       -2.332271e-01
        44         5       -8.588697e-01
        45         5       -5.425292e-01
        46         5       -1.505768e+00
        47         5        4.630677e-01
        48         5        3.888122e-01
        49         5        2.717542e+00
        50         5        5.576856e-01
        51         5        1.641472e+00
        52         5        2.227735e-01
        53         5        7.187016e-01
        54         5        7.305712e-01
        55         5        7.843442e-01
        56         5        3.432606e-01
        57         5        1.571729e-01
        58         5        3.425428e-01
        59         5        1.150442e+00
        60         5       -9.863109e-01
        61         5        2.253812e-01
        62         5        1.081949e+00
        63         5       -1.035215e+00
        64         5       -1.258012e+00
        65         5        2.093917e+00
        66         5        8.583617e-01
        67         5        1.504112e+00
        68         5       -1.451658e+00
        69         5       -2.678725e-01
        70         5        1.198341e-01
        71         5        7.025183e-02
        72         5        1.745765e+00
        73         5       -3.329940e-01
        74         5        1.442880e+00
        75         5       -1.096749e+00
        76         5        5.052010e-01
        77         5        5.220657e-01
        78         5        1.195854e+00
        79         5       -1.743348e-01
        80         5       -1.525345e-01
        81         5        1.875721e+00
        82         5        1.252703e+00
        83         5        1.197811e+00
        84         5       -7.735981e-01
        85         5       -1.326388e+00
        86         5       -4.978844e-01
        87         5       -6.759356e-01
        88         5        9.673294e-02
        89         5        4.564794e-01
        90         5        1.450367e-01
        91         5        3.365043e-01
        92         5        3.156782e-01
        93         5        9.618719e-01
        94         5       -1.479049e-01
        95         5       -2.926744e-01
        96         5       -9.821626e-01
        97         5       -1.282266e+00
        98         5        1.619422e-01
        99         5        1.291663e+00
       100         5        1.473288e-01
;

param theta:=
    1       -2.603375e+00
    2        5.105841e-01
    3       -1.435370e+00
    4       -1.309027e+00
    5        1.109321e-01
;
param X_true:=
    1        3.366692e+00
    2       -3.657461e+00
    3       -6.943911e-02
    4       -5.613068e+00
    5       -5.530812e-01
    6        4.395538e+00
    7        2.675299e+00
    8       -3.665276e+00
    9        5.567084e+00
   10        2.420897e-01
   11        2.174656e+00
   12        3.525467e+00
   13       -4.289992e+00
   14       -1.340831e+00
   15        2.091190e+00
   16        7.325432e-01
   17        3.487738e+00
   18        1.571139e+00
   19       -3.060498e+00
   20        2.742489e+00
   21        7.121915e-01
   22        9.125475e+00
   23        6.314002e+00
   24        2.261459e+00
   25        1.629777e+00
   26       -1.877819e+00
   27        3.458992e+00
   28        3.915793e+00
   29       -2.402510e+00
   30        4.451781e+00
   31        3.728814e+00
   32        1.487040e+00
   33       -1.771178e+00
   34        4.644916e+00
   35        1.210540e-01
   36        7.276454e-01
   37        2.852360e+00
   38        1.287995e+00
   39        9.502868e-01
   40        6.880780e-01
   41        3.621714e-01
   42        7.327401e-01
   43       -2.141143e+00
   44        2.053875e+00
   45       -1.445018e+00
   46       -2.402700e+00
   47        1.619333e+00
   48        3.598970e+00
   49        8.616726e-01
   50        3.890607e+00
   51       -1.141610e+00
   52       -1.384332e+00
   53        3.070745e+00
   54        4.623754e-01
   55       -4.558486e+00
   56        1.792392e+00
   57        3.835255e-01
   58        8.050403e-01
   59       -1.304419e+00
   60       -2.334911e+00
   61       -8.064932e-01
   62        5.955093e-01
   63        2.134138e+00
   64        4.012379e+00
   65       -2.082617e+00
   66       -5.907618e+00
   67        2.550812e+00
   68        2.284142e+00
   69       -1.390035e+00
   70        5.303438e-02
   71        9.391412e-02
   72       -1.445595e+00
   73        2.399911e+00
   74        2.982287e+00
   75       -2.171196e+00
   76       -7.771518e-01
   77        2.799206e+00
   78        3.864546e+00
   79        3.014362e+00
   80       -5.253903e-01
   81       -2.563458e+00
   82       -3.708680e+00
   83       -1.103004e+00
   84        6.791128e-02
   85        3.660195e-01
   86       -1.388348e+00
   87        9.276753e-01
   88       -2.652538e+00
   89        2.210912e+00
   90       -3.007518e+00
   91       -2.379430e+00
   92       -3.298076e+00
   93        5.098065e+00
   94       -2.366620e+00
   95       -5.550040e+00
   96        2.658102e+00
   97        5.284329e+00
   98        1.980144e+00
   99        4.055390e+00
  100       -2.760148e+00
;
param X:=
    1        3.366692e+00
    2       -3.657461e+00
    3       -1.339324e+00
    4       -5.613068e+00
    5       -5.530812e-01
    6       -3.088487e-01
    7       -3.295194e-01
    8       -2.468173e-01
    9        6.504095e-01
   10       -8.234812e-01
   11        2.174656e+00
   12       -2.774041e-01
   13        1.232133e+00
   14       -1.340831e+00
   15        8.351987e-01
   16        2.709633e+00
   17       -2.023870e+00
   18        1.253526e+00
   19       -3.374751e-01
   20       -1.462493e+00
   21        3.514495e-01
   22        9.915979e-01
   23        6.314002e+00
   24        9.382413e-01
   25       -1.845875e+00
   26        1.497399e+00
   27        7.827167e-01
   28       -9.957940e-01
   29        1.643214e-01
   30       -2.605425e-01
   31        3.728814e+00
   32        9.641602e-01
   33        1.156307e+00
   34       -2.598307e-01
   35        1.210540e-01
   36        2.320626e+00
   37        5.235611e-01
   38       -6.904104e-01
   39       -1.649829e+00
   40        2.114671e-01
   41       -5.337415e-01
   42       -1.038724e+00
   43       -2.141143e+00
   44        4.138156e-01
   45        5.908155e-01
   46       -1.424766e-01
   47       -5.945830e-01
   48        8.096361e-01
   49        8.616726e-01
   50       -3.460145e-02
   51       -4.697372e-01
   52       -2.554695e+00
   53       -8.071083e-01
   54        4.623754e-01
   55       -4.558486e+00
   56       -1.462452e+00
   57        3.835255e-01
   58       -4.529013e-01
   59       -5.672182e-01
   60        1.737615e+00
   61        3.455237e-01
   62       -6.599705e-01
   63       -1.715941e-01
   64       -6.939519e-03
   65        8.894225e-01
   66        1.021631e+00
   67        1.660831e+00
   68       -1.334160e+00
   69        4.624105e-01
   70        7.541681e-01
   71        2.148834e+00
   72       -1.267412e-01
   73        2.399911e+00
   74        1.047264e-02
   75        1.022517e+00
   76        1.711749e-01
   77       -1.829233e-01
   78        3.864546e+00
   79       -3.487910e-01
   80       -1.035216e+00
   81       -4.027519e-01
   82       -2.485875e-02
   83       -1.103004e+00
   84        3.027626e-01
   85        1.306595e+00
   86        1.891027e+00
   87        9.276753e-01
   88        1.439885e+00
   89        8.588587e-01
   90        2.043731e+00
   91        6.676418e-01
   92       -8.277653e-01
   93       -1.126998e+00
   94        1.291453e+00
   95       -2.720176e-02
   96        2.658102e+00
   97       -2.229710e+00
   98        1.240222e+00
   99        4.055390e+00
  100        9.947239e-01
;
param outliervec:=
    1    0
    2    0
    3    1
    4    0
    5    0
    6    1
    7    1
    8    1
    9    1
   10    1
   11    0
   12    1
   13    1
   14    0
   15    1
   16    1
   17    1
   18    1
   19    1
   20    1
   21    1
   22    1
   23    0
   24    1
   25    1
   26    1
   27    1
   28    1
   29    1
   30    1
   31    0
   32    1
   33    1
   34    1
   35    0
   36    1
   37    1
   38    1
   39    1
   40    1
   41    1
   42    1
   43    0
   44    1
   45    1
   46    1
   47    1
   48    1
   49    0
   50    1
   51    1
   52    1
   53    1
   54    0
   55    0
   56    1
   57    0
   58    1
   59    1
   60    1
   61    1
   62    1
   63    1
   64    1
   65    1
   66    1
   67    1
   68    1
   69    1
   70    1
   71    1
   72    1
   73    0
   74    1
   75    1
   76    1
   77    1
   78    0
   79    1
   80    1
   81    1
   82    1
   83    0
   84    1
   85    1
   86    1
   87    0
   88    1
   89    1
   90    1
   91    1
   92    1
   93    1
   94    1
   95    1
   96    0
   97    1
   98    1
   99    0
  100    1
;